p cnf 19 10
a 1 0
e 2 0
a 3 4 0
e 5 0
a 6 0
e 7 8 9 10 0
a 11 0
e 12 0
a 13 14 0
e 15 0
a 16 0
e 17 0
a 18 19 0
16 10 0
-5 1 -10 2 0
5 16 -18 11 0
-13 -10 9 -14 0
19 3 -17 0
2 11 -15 6 0
3 -15 -16 -12 -4 0
3 -9 11 14 -10 0
15 12 0
-10 -18 0
